nK = 836;
nT = 4;
nI = 7;
L = 35;
TT = 231;
np = 1;
nc = 3;
b = [34, 48, 27, 42, 45, 28, 28];
d = [58, 73, 133, 108, 78, 58, 85];
m = [1.6, 1.1, 1.7, 1, 1, 2.3, 2.5];
pt = [0.26, 0.26, 0.35, 0.34];
st = [13.78, 13.52, 16.45, 13.6];
arc = {<1, 0, 1, 1, 0, 0, 0, [1, 1, 1, 1]>, <2, 1, 2, 1, 0, 0, 0, [1, 1, 1, 1]>, <3, 2, 3, 1, 0, 0, 0, [1, 1, 1, 1]>, <4, 3, 4, 1, 0, 0, 0, [1, 1, 1, 1]>, <5, 4, 5, 1, 0, 0, 0, [1, 1, 1, 1]>, <6, 5, 6, 1, 0, 0, 0, [1, 1, 1, 1]>, <7, 6, 7, 1, 0, 0, 0, [1, 1, 1, 1]>, <8, 7, 8, 1, 0, 0, 0, [1, 1, 1, 1]>, <9, 8, 9, 1, 0, 0, 0, [1, 1, 1, 1]>, <10, 9, 10, 1, 0, 0, 0, [1, 1, 1, 1]>, <11, 10, 11, 1, 0, 0, 0, [1, 1, 1, 1]>, <12, 11, 12, 1, 0, 0, 0, [1, 1, 1, 1]>, <13, 12, 13, 1, 0, 0, 0, [1, 1, 1, 1]>, <14, 13, 14, 1, 0, 0, 0, [1, 1, 1, 1]>, <15, 14, 15, 1, 0, 0, 0, [1, 1, 1, 1]>, <16, 15, 16, 1, 0, 0, 0, [1, 1, 1, 1]>, <17, 16, 17, 1, 0, 0, 0, [1, 1, 1, 1]>, <18, 17, 18, 1, 0, 0, 0, [1, 1, 1, 1]>, <19, 18, 19, 1, 0, 0, 0, [1, 1, 1, 1]>, <20, 19, 20, 1, 0, 0, 0, [1, 1, 1, 1]>, <21, 20, 21, 1, 0, 0, 0, [1, 1, 1, 1]>, <22, 21, 22, 1, 0, 0, 0, [1, 1, 1, 1]>, <23, 22, 23, 1, 0, 0, 0, [1, 1, 1, 1]>, <24, 23, 24, 1, 0, 0, 0, [1, 1, 1, 1]>, <25, 24, 25, 1, 0, 0, 0, [1, 1, 1, 1]>, <26, 25, 26, 1, 0, 0, 0, [1, 1, 1, 1]>, <27, 26, 27, 1, 0, 0, 0, [1, 1, 1, 1]>, <28, 27, 28, 1, 0, 0, 0, [1, 1, 1, 1]>, <29, 28, 29, 1, 0, 0, 0, [1, 1, 1, 1]>, <30, 29, 30, 1, 0, 0, 0, [1, 1, 1, 1]>, <31, 30, 31, 1, 0, 0, 0, [1, 1, 1, 1]>, <32, 31, 32, 1, 0, 0, 0, [1, 1, 1, 1]>, <33, 32, 33, 1, 0, 0, 0, [1, 1, 1, 1]>, <34, 33, 34, 1, 0, 0, 0, [1, 1, 1, 1]>, <35, 34, 35, 1, 0, 0, 0, [1, 1, 1, 1]>, <36, 4, 17, 13, 1, 0, 0, [1, 0, 1, 1]>, <37, 5, 18, 13, 1, 0, 0, [1, 0, 1, 1]>, <38, 6, 19, 13, 1, 0, 0, [1, 0, 1, 1]>, <39, 13, 26, 13, 1, 0, 0, [1, 0, 1, 1]>, <40, 14, 27, 13, 1, 0, 0, [1, 0, 1, 1]>, <41, 15, 28, 13, 1, 0, 0, [1, 0, 1, 1]>, <42, 18, 31, 13, 1, 0, 0, [1, 0, 1, 1]>, <43, 19, 32, 13, 1, 0, 0, [1, 0, 1, 1]>, <44, 20, 33, 13, 1, 0, 0, [1, 0, 1, 1]>, <45, 21, 34, 13, 1, 0, 0, [1, 0, 1, 1]>, <46, 22, 35, 13, 1, 0, 0, [1, 0, 1, 1]>, <47, 3, 17, 14, 2, 0, 1, [1, 1, 1, 0]>, <48, 4, 18, 14, 2, 0, 1, [1, 1, 1, 0]>, <49, 5, 19, 14, 2, 0, 1, [1, 1, 1, 0]>, <50, 6, 20, 14, 2, 0, 1, [1, 1, 1, 0]>, <51, 12, 26, 14, 2, 0, 1, [1, 1, 1, 0]>, <52, 13, 27, 14, 2, 0, 1, [1, 1, 1, 0]>, <53, 14, 28, 14, 2, 0, 1, [1, 1, 1, 0]>, <54, 15, 29, 14, 2, 0, 1, [1, 1, 1, 0]>, <55, 17, 31, 14, 2, 0, 1, [1, 1, 1, 0]>, <56, 18, 32, 14, 2, 0, 1, [1, 1, 1, 0]>, <57, 19, 33, 14, 2, 0, 1, [1, 1, 1, 0]>, <58, 20, 34, 14, 2, 0, 1, [1, 1, 1, 0]>, <59, 21, 35, 14, 2, 0, 1, [1, 1, 1, 0]>, <60, 0, 18, 18, 3, 0, 0, [1, 0, 1, 1]>, <61, 1, 19, 18, 3, 0, 0, [1, 0, 1, 1]>, <62, 2, 20, 18, 3, 0, 0, [1, 0, 1, 1]>, <63, 3, 21, 18, 3, 0, 0, [1, 0, 1, 1]>, <64, 4, 22, 18, 3, 0, 0, [1, 0, 1, 1]>, <65, 5, 23, 18, 3, 0, 0, [1, 0, 1, 1]>, <66, 6, 24, 18, 3, 0, 0, [1, 0, 1, 1]>, <67, 8, 26, 18, 3, 0, 0, [1, 0, 1, 1]>, <68, 9, 27, 18, 3, 0, 0, [1, 0, 1, 1]>, <69, 10, 28, 18, 3, 0, 0, [1, 0, 1, 1]>, <70, 11, 29, 18, 3, 0, 0, [1, 0, 1, 1]>, <71, 12, 30, 18, 3, 0, 0, [1, 0, 1, 1]>, <72, 13, 31, 18, 3, 0, 0, [1, 0, 1, 1]>, <73, 14, 32, 18, 3, 0, 0, [1, 0, 1, 1]>, <74, 15, 33, 18, 3, 0, 0, [1, 0, 1, 1]>, <75, 16, 34, 18, 3, 0, 0, [1, 0, 1, 1]>, <76, 17, 35, 18, 3, 0, 0, [1, 0, 1, 1]>, <77, 4, 17, 13, 4, 0, 0, [1, 1, 0, 1]>, <78, 5, 18, 13, 4, 0, 0, [1, 1, 0, 1]>, <79, 6, 19, 13, 4, 0, 0, [1, 1, 0, 1]>, <80, 13, 26, 13, 4, 0, 0, [1, 1, 0, 1]>, <81, 14, 27, 13, 4, 0, 0, [1, 1, 0, 1]>, <82, 15, 28, 13, 4, 0, 0, [1, 1, 0, 1]>, <83, 18, 31, 13, 4, 0, 0, [1, 1, 0, 1]>, <84, 19, 32, 13, 4, 0, 0, [1, 1, 0, 1]>, <85, 20, 33, 13, 4, 0, 0, [1, 1, 0, 1]>, <86, 21, 34, 13, 4, 0, 0, [1, 1, 0, 1]>, <87, 22, 35, 13, 4, 0, 0, [1, 1, 0, 1]>, <88, 0, 17, 17, 5, 0, 0, [1, 0, 1, 1]>, <89, 1, 18, 17, 5, 0, 0, [1, 0, 1, 1]>, <90, 2, 19, 17, 5, 0, 0, [1, 0, 1, 1]>, <91, 3, 20, 17, 5, 0, 0, [1, 0, 1, 1]>, <92, 4, 21, 17, 5, 0, 0, [1, 0, 1, 1]>, <93, 5, 22, 17, 5, 0, 0, [1, 0, 1, 1]>, <94, 6, 23, 17, 5, 0, 0, [1, 0, 1, 1]>, <95, 9, 26, 17, 5, 0, 0, [1, 0, 1, 1]>, <96, 10, 27, 17, 5, 0, 0, [1, 0, 1, 1]>, <97, 11, 28, 17, 5, 0, 0, [1, 0, 1, 1]>, <98, 12, 29, 17, 5, 0, 0, [1, 0, 1, 1]>, <99, 13, 30, 17, 5, 0, 0, [1, 0, 1, 1]>, <100, 14, 31, 17, 5, 0, 0, [1, 0, 1, 1]>, <101, 15, 32, 17, 5, 0, 0, [1, 0, 1, 1]>, <102, 16, 33, 17, 5, 0, 0, [1, 0, 1, 1]>, <103, 17, 34, 17, 5, 0, 0, [1, 0, 1, 1]>, <104, 18, 35, 17, 5, 0, 0, [1, 0, 1, 1]>, <105, 0, 18, 18, 6, 0, 0, [1, 1, 1, 0]>, <106, 1, 19, 18, 6, 0, 0, [1, 1, 1, 0]>, <107, 2, 20, 18, 6, 0, 0, [1, 1, 1, 0]>, <108, 3, 21, 18, 6, 0, 0, [1, 1, 1, 0]>, <109, 4, 22, 18, 6, 0, 0, [1, 1, 1, 0]>, <110, 5, 23, 18, 6, 0, 0, [1, 1, 1, 0]>, <111, 6, 24, 18, 6, 0, 0, [1, 1, 1, 0]>, <112, 8, 26, 18, 6, 0, 0, [1, 1, 1, 0]>, <113, 9, 27, 18, 6, 0, 0, [1, 1, 1, 0]>, <114, 10, 28, 18, 6, 0, 0, [1, 1, 1, 0]>, <115, 11, 29, 18, 6, 0, 0, [1, 1, 1, 0]>, <116, 12, 30, 18, 6, 0, 0, [1, 1, 1, 0]>, <117, 13, 31, 18, 6, 0, 0, [1, 1, 1, 0]>, <118, 14, 32, 18, 6, 0, 0, [1, 1, 1, 0]>, <119, 15, 33, 18, 6, 0, 0, [1, 1, 1, 0]>, <120, 16, 34, 18, 6, 0, 0, [1, 1, 1, 0]>, <121, 17, 35, 18, 6, 0, 0, [1, 1, 1, 0]>, <122, 0, 18, 18, 7, 0, 0, [0, 1, 1, 1]>, <123, 1, 19, 18, 7, 0, 0, [0, 1, 1, 1]>, <124, 2, 20, 18, 7, 0, 0, [0, 1, 1, 1]>, <125, 3, 21, 18, 7, 0, 0, [0, 1, 1, 1]>, <126, 4, 22, 18, 7, 0, 0, [0, 1, 1, 1]>, <127, 5, 23, 18, 7, 0, 0, [0, 1, 1, 1]>, <128, 6, 24, 18, 7, 0, 0, [0, 1, 1, 1]>, <129, 8, 26, 18, 7, 0, 0, [0, 1, 1, 1]>, <130, 9, 27, 18, 7, 0, 0, [0, 1, 1, 1]>, <131, 10, 28, 18, 7, 0, 0, [0, 1, 1, 1]>, <132, 11, 29, 18, 7, 0, 0, [0, 1, 1, 1]>, <133, 12, 30, 18, 7, 0, 0, [0, 1, 1, 1]>, <134, 13, 31, 18, 7, 0, 0, [0, 1, 1, 1]>, <135, 14, 32, 18, 7, 0, 0, [0, 1, 1, 1]>, <136, 15, 33, 18, 7, 0, 0, [0, 1, 1, 1]>, <137, 16, 34, 18, 7, 0, 0, [0, 1, 1, 1]>, <138, 17, 35, 18, 7, 0, 0, [0, 1, 1, 1]>};
